%%% static parameters %%%
timespan = 1;
Clients_N = [4000];
Demand_W = [15];
Lt0 = [4];
Lt1 = [4];
SS_ = [0.85];
DS_D = [20];
K = [200];
MA = [500];
HC = [0.05];
%%% dynamic parameters %%%
lost_ratio_sales_ret_th = 0.0009507606423759092;
lost_ratio_sales_ret_w = 74;
lost_ratio_sales_dis_th = 0.0006174969333625799;
lost_ratio_sales_dis_w = 71;
lost_ratio_sales_fac_th = 0.0007903892572861937;
lost_ratio_sales_fac_w = 95;
stock_customer_MA_mean_relative_th = 0.506554100287749;
stock_customer_MA_mean_relative_w = 9;
stock_distributor_MA_mean_relative_th = 0.9839799779369327;
stock_distributor_MA_mean_relative_w = 96;
stock_retailer_MA_mean_relative_th = 0.6990761687945414;
stock_retailer_MA_mean_relative_w = 46;
stock_factory_MA_mean_relative_th = 0.2091328093530348;
stock_factory_MA_mean_relative_w = 91;
